nNurses = 191;
nHours = 26;
minHours = 9;
maxHours = 16;
maxConsec = 8;
maxPresence = 11;
demand = [48, 47, 47, 43, 47, 46, 49, 45, 50, 46, 41, 36, 32, 30, 31, 31, 30, 33, 32, 35, 39, 42, 39, 37, 40, 35];
